11
shortest_path: 115
-1 46 22 39 45 49 24 8 23 12 34
40 -1 25 21 47 21 46 30 22 17 41
41 29 -1 37 23 27 12 11 46 13 10
7 41 16 -1 23 29 27 22 24 30 44
43 11 7 8 -1 38 34 26 21 43 33
37 19 42 47 17 -1 39 43 26 39 18
36 25 10 47 23 6 -1 45 37 9 18
46 5 10 29 30 10 26 -1 11 8 43
14 28 14 24 41 10 21 46 -1 31 33
29 44 16 33 7 33 13 17 29 -1 31
23 25 9 8 29 35 32 16 43 26 -1